Minimize
  3 Oatmeal + 24 Chicken + 13 Eggs + 9 Milk + 20 CherryPie + 19 PorkandBeans 

Subject To
  Energy: 110 Oatmeal + 205 Chicken + 160 Eggs + 160 Milk + 420 CherryPie + 260 PorkandBeans >= 2000
  Protein: 4 Oatmeal + 32 Chicken + 13 Eggs + 8 Milk + 4 CherryPie + 14 PorkandBeans >= 55
  Calcium: 2 Oatmeal + 12 Chicken + 54 Eggs + 28 Milk + 22 CherryPie + 80 PorkandBeans >= 800

Bounds
 0 <= Oatmeal <= 4
 0 <= Chicken <= 3
 0 <= Eggs <= 2
 0 <= Milk <= 8
 0 <= CherryPie <= 2 
 0 <= PorkandBeans <= 2 

Integers
  Oatmeal Chicken Eggs Milk CherryPie PorkandBeans 
End
